19387
101001011101011001001000110010
13 25 20 14 13 5 2 24 28 0 24 20 14 20 0 2 17 17 5 11 2 7 9 7 9 20 2 24 5 9 25 11 13 11 20 13 24 24 0 17 7 14 24 13 24 14 17 13 25 28 11 8 14 5 8 13 2 25 25 14 0 5 20 25 11 11 9 0 5 5 13 20 11 7 9 28 9 20 14 9 20 7 20 17 17 17 2 0 20 25 2 24 17 7 11 5 2 7 24 8 28 17 17 0 2 25 2 0 8 28 14 14 2 11 25 25 5 24 24 24 5 14 25 20 8 11 5 25 17 7 0 11 5 14 20 14 0 9 20 17 0 28 20 14 8 25 25 5 2 5 